c FILE: myciel3.col
c SOURCE: Michael Trick (trick@cmu.edu)
c DESCRIPTION: Graph based on Mycielski transformation. 
c              Triangle free (clique number 2) but increasing
c              coloring number
p edge 11 20
e 2 1
e 3 2
e 4 1
e 5 3
e 5 4
e 6 2
e 6 4
e 7 1
e 7 3
e 8 2
e 8 5
e 9 1
e 9 5
e 10 3
e 10 4
e 11 6
e 11 7
e 11 8
e 11 9
e 11 10
